w=11+5+4+4+5+4+4+5+4+1;
w_holy=[4,3,  2,2,2,2,3,  2,2,2,2  ,2,2,2,2,2  ,4,2,2,2  ,2,2,2,2   ,2,2,2,2,3   ,2,2,2,2   ,3,2,4,3 ,2,2,2,2,2  ,2,2,2,2    ,2];
p=9;
p_done=[1+2+2+0,  2+1+2+0,  3+0+2+0,  1+1+2+2,  2+2+2+3,  4+3+3+2,  3+2+2+0,  0+3+3+0,  4+2+2+3];
p_vaca=[{1},{},{9,10,11},{1},{},{1,2},{1,2,14,15},{},{}];
p_volu=[{},{},{},{},{},{},{},{},{}];
wrest=3;
wsmin=3; 